proyfinal/src/viki/013/andrea/andrea-localstore/experimentInOfficeAgust.take6/worker_8/245ffdfc-d805-4cf3-a4f2-efaa9f7012fa.als.cnf.out
Reading from standard input... Use '--help' for help.
============================[ Problem Statistics ]=============================
|                                                                             |
|  Number of variables:         87638                                         |
|  Number of clauses:          161767                                         |
|  Parse time:                   0.03 s                                       |
|                                                                             |
============================[ Search Statistics ]==============================
| Conflicts |          ORIGINAL         |          LEARNT          | Progress |
|           |    Vars  Clauses Literals |    Limit  Clauses Lit/Cl |          |
===============================================================================
|       100 |   65199   115455   287851 |    42333      100     15 | 25.604 % |
|       250 |   60334    99518   248449 |    46566      248     53 | 31.155 % |
|       475 |   60333    99474   248359 |    51223      472     43 | 31.157 % |
|       812 |   60333    99474   248359 |    56345      809     42 | 31.157 % |
|      1318 |   60333    99474   248359 |    61980     1315    106 | 31.157 % |
|      2077 |   60292    99279   247969 |    68178     2073     94 | 31.203 % |
|      3216 |   60183    99206   247794 |    74996     3209     90 | 31.328 % |
|      4924 |   60072    98438   245963 |    82496     4910     82 | 31.454 % |
|      7486 |   60041    98311   245652 |    90745     7269     98 | 31.490 % |
|     11330 |   59706    96966   242526 |    99820    11080     93 | 31.872 % |
|     17096 |   59564    96408   241218 |   109802    16633     95 | 32.034 % |
===============================================================================
restarts              : 65
conflicts             : 19418          (6733 /sec)
decisions             : 89320          (0.00 % random) (30971 /sec)
propagations          : 28287555       (9808513 /sec)
conflict literals     : 1990648        (38.97 % deleted)
Memory used           : 40.72 MB
CPU time              : 2.88398 s

INDETERMINATE
